objective value:                                  -76
t_x12                                               1 	(obj:-100)
t_y12_149                                           1 	(obj:1)
t_y12_300                                           1 	(obj:1)
t_y12_30                                            1 	(obj:1)
t_y12_196                                           1 	(obj:1)
t_y12_292                                           1 	(obj:1)
t_y12_27                                            1 	(obj:1)
t_y12_377                                           1 	(obj:1)
t_y12_293                                           1 	(obj:1)
t_y12_179                                           1 	(obj:1)
t_y12_221                                           1 	(obj:1)
t_y12_114                                           1 	(obj:1)
t_y12_438                                           1 	(obj:1)
t_y12_288                                           1 	(obj:1)
t_y12_231                                           1 	(obj:1)
t_y12_453                                           1 	(obj:1)
t_y12_216                                           1 	(obj:1)
t_y12_55                                            1 	(obj:1)
t_y12_68                                            1 	(obj:1)
t_y12_71                                            1 	(obj:1)
t_y12_366                                           1 	(obj:1)
t_y12_425                                           1 	(obj:1)
t_y12_361                                           1 	(obj:1)
t_y12_269                                           1 	(obj:1)
t_y12_124                                           1 	(obj:1)
